NAME: Instances/Nodes/10n_10s_15d_instance.tsp
COMMENT: Ben Desjardins (bdesj038@uottawa.ca)
DIMENSION: 10
SPARCITY: 10
%HOLES: 15.0%
EDGE_WEIGHT_TYPE: EUC_2D


NODE	X_LOC	Y_LOC	DEMAND	BATTERY
DATASTART
0	0	0	0	0
1	277	-437	1	54
2	461	35	1	79
3	296	208	1	76
4	332	-449	1	39
5	75	209	1	38
6	-124	-175	1	87
7	-352	-389	1	86
8	-46	-322	1	48
EODATA
NODE	X_LOC	Y_LOC	DEMAND	DEGREE
HOLESTART
0	-440	-360	-1	12
1	-60	-380	-1	12
EOHOLE
EOF
